<number of tasks>
100

<cycle time>
1000

<order strength>
0.897


<task times>
1 162
2 500
3 565
4 522
5 423
6 472
7 546
8 541
9 347
10 623
11 458
12 330
13 583
14 272
15 432
16 555
17 425
18 476
19 514
20 475
21 422
22 573
23 650
24 407
25 417
26 391
27 318
28 552
29 500
30 407
31 403
32 347
33 497
34 564
35 583
36 635
37 407
38 612
39 514
40 496
41 384
42 616
43 571
44 331
45 718
46 631
47 676
48 624
49 552
50 577
51 449
52 528
53 461
54 586
55 598
56 480
57 404
58 451
59 384
60 432
61 671
62 554
63 340
64 508
65 331
66 510
67 532
68 574
69 422
70 581
71 450
72 363
73 373
74 502
75 488
76 489
77 614
78 495
79 560
80 596
81 654
82 662
83 457
84 486
85 638
86 513
87 498
88 587
89 625
90 597
91 381
92 693
93 397
94 588
95 439
96 477
97 369
98 623
99 329
100 438

<precedence relations>
1,5
1,6
2,5
2,6
3,5
3,6
4,5
4,6
5,7
5,8
5,9
6,7
6,8
6,9
7,10
7,11
7,12
7,13
7,14
8,10
8,11
8,12
8,13
8,14
9,10
9,11
9,12
9,13
9,14
10,15
10,16
10,17
10,18
10,19
11,15
11,16
11,17
11,18
11,19
12,15
12,16
12,17
12,18
12,19
13,15
13,16
13,17
13,18
13,19
14,15
14,16
14,17
14,18
14,19
15,20
15,21
15,22
15,23
16,20
16,21
16,22
16,23
17,20
17,21
17,22
17,23
18,20
18,21
18,22
18,23
19,20
19,21
19,22
19,23
20,24
21,24
21,25
22,24
22,25
23,24
23,25
24,26
24,27
25,26
25,27
26,28
26,29
26,30
26,31
26,32
27,28
27,29
27,30
27,31
27,32
28,33
29,33
29,34
29,35
29,36
30,33
30,34
30,35
30,36
31,33
31,34
31,35
31,36
32,33
33,38
34,37
34,39
35,37
35,38
35,39
36,37
36,38
37,49
38,40
38,41
39,40
40,42
40,43
41,42
41,43
42,44
42,45
42,46
42,47
42,48
43,44
43,45
43,46
43,47
43,48
44,49
44,50
44,51
45,49
45,50
46,49
46,50
46,51
47,49
47,50
47,51
48,49
49,52
49,53
49,54
49,55
49,56
50,52
50,53
50,54
50,55
50,56
51,52
51,53
51,54
51,55
51,56
52,57
52,60
52,61
53,96
54,96
55,58
55,59
56,57
57,62
57,63
57,64
58,62
58,63
58,64
59,94
60,64
61,62
62,65
62,66
62,67
62,68
63,65
63,73
63,81
64,65
64,66
64,67
64,68
65,72
65,80
66,69
66,71
67,70
68,69
68,72
68,73
69,74
70,74
70,75
70,76
71,74
71,75
71,76
73,76
73,77
74,79
74,80
75,87
75,92
75,94
75,96
76,78
76,92
76,96
77,80
77,82
78,94
79,81
79,82
80,83
80,84
81,88
81,90
82,93
83,85
84,96
85,86
85,87
85,88
85,89
85,90
86,92
86,95
88,91
88,93
89,93
90,92
91,96
93,94
93,95
94,97
95,97
97,98
97,99
97,100

<end>
